JulietBench/Juliet_Based_Patch_Bench/linux/CWE-189-Numeric-Errors/CVE_2009_1385_ea30e11970a96cfe5e32c03a29332554573b4a10/solvere1000_clean_rx_irq_Snippet_patch1.smt2
; benchmark generated from python API
(set-info :status unknown)
(declare-fun R () (_ BitVec 32))
(declare-fun rsi () (_ BitVec 64))
(declare-fun rdi () (_ BitVec 64))
(assert
 (let (($x120 (= (_ bv4294967295 32) R)))
 (let ((?x12 ((_ extract 7 0) rsi)))
 (let ((?x39 (bvand ?x12 (_ bv2 8))))
 (let (($x38 (= (_ bv0 8) ?x39)))
 (let (($x121 (and $x38 $x120)))
 (let (($x77 (and (distinct (_ bv0 8) ?x39) true)))
 (let ((?x6 ((_ extract 31 0) rdi)))
 (let (($x88 (bvsge (_ bv4 32) ?x6)))
 (let (($x124 (and $x88 $x77 $x120)))
 (let ((?x97 (bvadd (_ bv4294967292 32) ?x6)))
 (let (($x110 (= R ?x97)))
 (let (($x106 (bvslt (_ bv4 32) ?x6)))
 (let (($x123 (and $x106 $x77 $x110)))
 (let (($x125 (or $x123 $x124 $x121)))
 (let (($x128 (not $x125)))
 (let (($x115 (and $x77 $x110)))
 (let (($x122 (or $x115 $x121)))
 (let (($x127 (not $x122)))
 (let (($x129 (and $x127 $x128)))
 (let (($x126 (and $x122 $x125)))
 (let (($x130 (or $x126 $x129)))
 (not $x130)))))))))))))))))))))))
(check-sat)
